&CONTROL
  calculation = 'bands'
  pseudo_dir = './pseudo'
  outdir = './tmp'
/

&SYSTEM
  ibrav = 2
  celldm(1) = 6.73
  nat = 1
  ntyp = 1
  ecutwfc = 30.0
  nbnd = 8
/

&ELECTRONS
  diagonalization = 'david'
/

ATOMIC_SPECIES
 Cu  63.55 Cu.pbe-kjpaw.UPF

ATOMIC_POSITIONS crystal
 Cu 0.0 0.0 0.0

K_POINTS crystal
60
0.50000000 0.25000000 0.75000000  1.0
0.50000000 0.27083333 0.72916667  1.0
0.50000000 0.29166667 0.70833333  1.0
0.50000000 0.31250000 0.68750000  1.0
0.50000000 0.33333333 0.66666667  1.0
0.50000000 0.35416667 0.64583333  1.0
0.50000000 0.37500000 0.62500000  1.0
0.50000000 0.39583333 0.60416667  1.0
0.50000000 0.41666667 0.58333333  1.0
0.50000000 0.43750000 0.56250000  1.0
0.50000000 0.45833333 0.54166667  1.0
0.50000000 0.47916667 0.52083333  1.0
0.50000000 0.50000000 0.50000000  1.0
0.46666667 0.46666667 0.46666667  1.0
0.43333333 0.43333333 0.43333333  1.0
0.40000000 0.40000000 0.40000000  1.0
0.36666667 0.36666667 0.36666667  1.0
0.33333333 0.33333333 0.33333333  1.0
0.30000000 0.30000000 0.30000000  1.0
0.26666667 0.26666667 0.26666667  1.0
0.23333333 0.23333333 0.23333333  1.0
0.20000000 0.20000000 0.20000000  1.0
0.16666667 0.16666667 0.16666667  1.0
0.13333333 0.13333333 0.13333333  1.0
0.10000000 0.10000000 0.10000000  1.0
0.06666667 0.06666667 0.06666667  1.0
0.03333333 0.03333333 0.03333333  1.0
0.00000000 0.00000000 0.00000000  1.0
0.02941176 0.00000000 0.02941176  1.0
0.05882353 0.00000000 0.05882353  1.0
0.08823529 0.00000000 0.08823529  1.0
0.11764706 0.00000000 0.11764706  1.0
0.14705882 0.00000000 0.14705882  1.0
0.17647059 0.00000000 0.17647059  1.0
0.20588235 0.00000000 0.20588235  1.0
0.23529412 0.00000000 0.23529412  1.0
0.26470588 0.00000000 0.26470588  1.0
0.29411765 0.00000000 0.29411765  1.0
0.32352941 0.00000000 0.32352941  1.0
0.35294118 0.00000000 0.35294118  1.0
0.38235294 0.00000000 0.38235294  1.0
0.41176471 0.00000000 0.41176471  1.0
0.44117647 0.00000000 0.44117647  1.0
0.47058824 0.00000000 0.47058824  1.0
0.50000000 0.00000000 0.50000000  1.0
0.50000000 0.02777778 0.52777778  1.0
0.50000000 0.05555556 0.55555556  1.0
0.50000000 0.08333333 0.58333333  1.0
0.50000000 0.11111111 0.61111111  1.0
0.50000000 0.13888889 0.63888889  1.0
0.50000000 0.16666667 0.66666667  1.0
0.50000000 0.19444444 0.69444444  1.0
0.50000000 0.22222222 0.72222222  1.0
0.50000000 0.25000000 0.75000000  1.0
0.47916667 0.27083333 0.75000000  1.0
0.45833333 0.29166667 0.75000000  1.0
0.43750000 0.31250000 0.75000000  1.0
0.41666667 0.33333333 0.75000000  1.0
0.39583333 0.35416667 0.75000000  1.0
0.37500000 0.37500000 0.75000000  1.0

