&CONTROL
  calculation = 'scf'
  restart_mode = 'from_scratch'
  pseudo_dir = './pseudo'
  outdir = './tmp'
/

&SYSTEM
  ibrav = 2
  celldm(1) = 6.73
  nat = 1
  ntyp= 1
  ecutwfc = 30.0
  occupations = 'smearing'
  smearing = 'gaussian'
  degauss = 0.02
/

&ELECTRONS
  conv_thr = 1.0e-8
  mixing_beta = 0.7
/

ATOMIC_SPECIES
Cu 63.55 Cu.pbe-kjpaw.UPF

ATOMIC_POSITIONS crystal
Cu 0.0 0.0 0.0

K_POINTS automatic
 8 8 8 0 0 0


