&CONTROL
  calculation = 'scf'
  restart_mode = 'from_scratch'
  pseudo_dir = '/home/efefer/pseudo'
  outdir = './tmp'
  tprnfor = .TRUE.
/

&SYSTEM
  ibrav   = 1
  a       = 10.0
  ntyp    = 2
  nat     = 6
  ecutwfc = 30.0
/

&ELECTRONS
  electron_maxstep = 150
  mixing_beta = 0.5
/

ATOMIC_SPECIES
N   14.00  N.pbe-kjpaw.UPF
H    1.00  H.pbe-kjpaw.UPF

ATOMIC_POSITIONS angstrom
N       4.260000000000000      5.000000000000000      5.000000000000000
N       5.740000000000000      5.000000000000000      5.000000000000000
H       3.818327044069936      5.765000000000000      5.765000000000000
H       3.818327044069936      4.234999999999999      5.765000000000000
H       6.181672955930064      5.765000000000000      4.234999999999999
H       6.181672955930064      4.234999999999999      4.234999999999999

K_POINTS gamma
