&CONTROL
  calculation = 'scf'
  restart_mode = 'from_scratch'
  pseudo_dir = '/home/efefer/pseudo'
  wf_collect = .true.
  outdir = './tmp'
/

&SYSTEM
  ibrav   = 1
  a       = 15.0
  ntyp    = 1
  nat     = 2
  ecutwfc = 30.0
  ecutrho = 200.0
/

&ELECTRONS
  electron_maxstep = 150
  mixing_beta = 0.5
/

ATOMIC_SPECIES
H   14.00  H.pbe-rrkjus.UPF

ATOMIC_POSITIONS angstrom
H      7.50000000       7.50000000       7.50000000
H      7.50000000       7.50000000       8.50000000

K_POINTS gamma


