&CONTROL
  calculation = 'scf'
  restart_mode = 'from_scratch'
  pseudo_dir = './pseudo'
  outdir = './tmp'
/

&SYSTEM
  ibrav   = 1
  a       = 15.0
  ntyp    = 2
  nat     = 2
  ecutwfc = 30.0
  nbnd    = 8
/

&ELECTRONS
  electron_maxstep = 150
  mixing_beta = 0.5
/

&IONS
/

ATOMIC_SPECIES
C   12.00  C.pbe-n-kjpaw_psl.0.1.UPF
O   16.00  O.pbe-kjpaw.UPF

ATOMIC_POSITIONS angstrom
C        7.500000000   7.500000000   7.500000000    0   0   0
O        8.646026359   7.500000000   7.500000000

K_POINTS gamma


