&CONTROL
  calculation = 'scf'
  restart_mode = 'from_scratch'
  pseudo_dir = './pseudo'
  wf_collect = .true.
  outdir = './tmp'
/

&SYSTEM
  ibrav   = 1
  a       = 15.0
  ntyp    = 1
  nat     = 2
  ecutwfc = 30.0
  nbnd    = 8
/

&ELECTRONS
  electron_maxstep = 150
  mixing_beta = 0.5
/

ATOMIC_SPECIES
N   14.00  N.pbe-rrkjus.UPF

ATOMIC_POSITIONS angstrom
N      7.50000000       7.50000000       7.50000000
N      7.50000000       7.50000000       8.50000000

K_POINTS gamma


