&CONTROL
  calculation = 'scf'
  restart_mode = 'from_scratch'
  pseudo_dir = './pseudo'
  outdir = './tmp'
/

&SYSTEM
  ibrav = 2
  celldm(1) = 10.25
  nat = 2
  ntyp= 1
  ecutwfc = 30.0
  nbnd = 8
/

&ELECTRONS
  mixing_beta = 0.7
  conv_thr =  1.0d-8
/

ATOMIC_SPECIES
Si  28.086  Si.pz-vbc.UPF

ATOMIC_POSITIONS  crystal
Si 0.00 0.00 0.00
Si 0.25 0.25 0.25

K_POINTS automatic
 8 8 8 0 0 0

