&CONTROL
  calculation = 'scf'
  restart_mode = 'from_scratch'
  pseudo_dir = './pseudo'
  wf_collect = .true.
  outdir = './tmp'
  nstep = 1000
/

&SYSTEM
  ibrav   = 1
  celldm(1) = 30.0
  ntyp    = 1
  nat     = 2
  ecutwfc = 30.0
  nspin = 2
	nbnd = 10
	occupations = 'from_input'
  assume_isolated = 'martyna-tuckerman'
  tot_magnetization = 2.0
/

&ELECTRONS
  electron_maxstep = 150
  mixing_beta = 0.1
  mixing_mode = 'local-TF'
/

&IONS
/

ATOMIC_SPECIES
O   16.00  O.pbe-kjpaw.UPF

ATOMIC_POSITIONS angstrom
O  5.000504407  5.015110219  5.015110219 
O  5.009495593  5.884889781  5.884889781

K_POINTS gamma

OCCUPATIONS
1 1 1 1 1 1 1 0 0 0
1 1 1 1 1 0 0 0 0 0


