&CONTROL
  calculation = 'scf'
  pseudo_dir  = '/home/efefer/pseudo_old'
  outdir      = './tmp'
/

&SYSTEM
  ibrav = 1
  A = 10.0
  nat = 6
  ntyp = 2
  ecutwfc = 30.d0
/

&ELECTRONS
  conv_thr    = 1.D-6
  mixing_beta = 0.3D0
  electron_maxstep = 200
/

ATOMIC_SPECIES
N  14.0  N.pz-vbc.UPF
H   1.0  H.pz-vbc.UPF

ATOMIC_POSITIONS angstrom
N       4.260000000000000      5.000000000000000      5.000000000000000
N       5.740000000000000      5.000000000000000      5.000000000000000
H       3.818327044069936      5.765000000000000      5.765000000000000
H       3.818327044069936      4.234999999999999      5.765000000000000
H       6.181672955930064      5.765000000000000      4.234999999999999
H       6.181672955930064      4.234999999999999      4.234999999999999

K_POINTS tpiba
1
0.0  0.0  0.0  1.0
