&CONTROL
  calculation = 'scf'
  restart_mode = 'from_scratch'
  pseudo_dir = '/home/efefer/pseudo'
  outdir = './tmp'
  disk_io = 'none'
  tprnfor = .TRUE.
/

&SYSTEM
  ibrav   = 1
  a       = 15.0
  ntyp    = 1
  nat     = 2
  ecutwfc = 30.0
/

&ELECTRONS
  electron_maxstep = 150
  mixing_beta = 0.5
/

ATOMIC_SPECIES
N   14.00  N.pbe-kjpaw.UPF

ATOMIC_POSITIONS angstrom
N       4.4450941330       4.9999814250       4.9999814250
N       5.5549058670       5.0000185750       4.9900185750

K_POINTS gamma
