&CONTROL
  calculation = 'scf'
  restart_mode = 'from_scratch'
  pseudo_dir = '/home/efefer/pseudo'
  outdir = './tmp'
  disk_io = 'none'
  tprnfor = .TRUE.
/

&SYSTEM
  ibrav   = 1
  a       = 15.0
  ntyp    = 1
  nat     = 2
  ecutwfc = 30.0
/

&ELECTRONS
  electron_maxstep = 150
  mixing_beta = 0.5
/

ATOMIC_SPECIES
N   14.00  N.pbe-kjpaw.UPF
